100
2494
50
0 1
0 2
0 4
0 5
0 7
0 8
0 9
0 10
0 11
0 14
0 16
0 17
0 19
0 21
0 22
0 24
0 25
0 28
0 30
0 32
0 33
0 34
0 35
0 38
0 39
0 40
0 42
0 45
0 46
0 47
0 49
0 51
0 52
0 53
0 54
0 55
0 57
0 58
0 59
0 60
0 64
0 65
0 66
0 67
0 68
0 69
0 70
0 73
0 75
0 76
0 78
0 80
0 85
0 86
0 88
0 90
0 91
0 93
0 95
0 98
0 99
1 3
1 4
1 5
1 8
1 10
1 12
1 14
1 15
1 16
1 17
1 18
1 19
1 21
1 22
1 24
1 28
1 30
1 32
1 35
1 37
1 38
1 48
1 53
1 54
1 59
1 62
1 63
1 64
1 65
1 68
1 69
1 70
1 72
1 73
1 74
1 75
1 77
1 80
1 82
1 84
1 85
1 86
1 92
1 93
1 94
2 4
2 5
2 7
2 11
2 12
2 14
2 16
2 17
2 18
2 19
2 23
2 25
2 27
2 28
2 30
2 31
2 32
2 33
2 35
2 37
2 38
2 42
2 43
2 47
2 48
2 51
2 52
2 53
2 54
2 55
2 57
2 62
2 63
2 64
2 66
2 67
2 70
2 73
2 74
2 75
2 80
2 82
2 84
2 87
2 89
2 90
2 91
2 92
2 94
2 96
2 97
2 98
3 7
3 8
3 9
3 10
3 13
3 14
3 15
3 16
3 19
3 22
3 27
3 28
3 30
3 31
3 35
3 38
3 39
3 40
3 44
3 49
3 51
3 54
3 56
3 58
3 59
3 63
3 65
3 66
3 68
3 69
3 70
3 72
3 73
3 74
3 76
3 77
3 78
3 79
3 80
3 81
3 82
3 84
3 86
3 87
3 95
3 96
4 6
4 7
4 8
4 13
4 14
4 16
4 18
4 19
4 21
4 22
4 23
4 24
4 25
4 26
4 27
4 31
4 32
4 33
4 37
4 38
4 39
4 40
4 42
4 43
4 46
4 47
4 48
4 50
4 51
4 53
4 58
4 62
4 65
4 66
4 67
4 68
4 69
4 70
4 74
4 75
4 79
4 83
4 85
4 88
4 91
4 92
4 96
4 99
5 6
5 8
5 10
5 15
5 17
5 18
5 19
5 20
5 22
5 25
5 26
5 27
5 31
5 32
5 33
5 35
5 36
5 37
5 39
5 43
5 45
5 48
5 49
5 51
5 55
5 56
5 58
5 59
5 61
5 62
5 63
5 65
5 68
5 69
5 74
5 75
5 76
5 77
5 78
5 79
5 80
5 81
5 85
5 87
5 88
5 91
5 92
5 94
5 97
6 7
6 8
6 11
6 12
6 16
6 20
6 21
6 26
6 27
6 28
6 29
6 30
6 32
6 35
6 37
6 38
6 43
6 44
6 45
6 46
6 51
6 54
6 55
6 57
6 60
6 65
6 66
6 68
6 69
6 70
6 73
6 75
6 76
6 77
6 81
6 83
6 85
6 87
6 89
6 90
6 91
6 94
6 95
6 96
6 98
6 99
7 10
7 11
7 12
7 15
7 18
7 19
7 20
7 21
7 25
7 26
7 29
7 31
7 32
7 33
7 34
7 36
7 40
7 44
7 50
7 53
7 55
7 56
7 61
7 63
7 64
7 65
7 70
7 72
7 73
7 75
7 76
7 77
7 80
7 81
7 82
7 88
7 89
7 90
7 91
7 92
7 96
7 97
8 9
8 10
8 11
8 12
8 13
8 14
8 16
8 17
8 18
8 19
8 20
8 22
8 24
8 26
8 29
8 30
8 31
8 32
8 33
8 34
8 35
8 37
8 40
8 42
8 46
8 49
8 53
8 56
8 58
8 62
8 64
8 67
8 68
8 70
8 72
8 74
8 76
8 77
8 78
8 79
8 80
8 82
8 83
8 88
8 90
8 92
8 93
8 95
8 97
8 98
9 10
9 12
9 13
9 14
9 15
9 17
9 18
9 20
9 22
9 23
9 24
9 25
9 27
9 32
9 35
9 40
9 41
9 44
9 46
9 47
9 50
9 52
9 54
9 57
9 59
9 60
9 61
9 62
9 63
9 64
9 65
9 66
9 69
9 70
9 71
9 72
9 73
9 75
9 76
9 77
9 78
9 79
9 80
9 81
9 82
9 84
9 85
9 87
9 89
9 90
9 91
9 92
9 94
9 96
9 97
9 98
9 99
10 12
10 13
10 17
10 18
10 22
10 23
10 25
10 27
10 28
10 29
10 37
10 38
10 39
10 40
10 41
10 42
10 43
10 45
10 46
10 47
10 48
10 53
10 55
10 56
10 57
10 59
10 60
10 61
10 63
10 66
10 70
10 71
10 72
10 74
10 75
10 76
10 79
10 82
10 83
10 85
10 86
10 88
10 91
10 93
10 94
10 96
10 99
11 12
11 13
11 14
11 18
11 25
11 28
11 30
11 32
11 37
11 40
11 47
11 48
11 53
11 55
11 60
11 63
11 64
11 65
11 67
11 68
11 70
11 71
11 72
11 74
11 77
11 80
11 86
11 87
11 88
11 89
11 92
11 93
11 94
11 96
11 97
11 99
12 14
12 15
12 16
12 18
12 19
12 20
12 23
12 24
12 27
12 28
12 29
12 31
12 32
12 33
12 34
12 35
12 37
12 44
12 45
12 47
12 48
12 49
12 50
12 51
12 52
12 53
12 55
12 56
12 57
12 59
12 62
12 63
12 64
12 65
12 68
12 71
12 74
12 75
12 76
12 77
12 78
12 79
12 80
12 81
12 83
12 84
12 85
12 90
12 91
12 93
12 95
12 96
12 97
12 98
13 14
13 17
13 18
13 20
13 21
13 23
13 25
13 26
13 30
13 31
13 34
13 36
13 37
13 38
13 41
13 45
13 49
13 50
13 53
13 56
13 60
13 65
13 66
13 72
13 73
13 74
13 80
13 82
13 86
13 88
13 92
13 95
13 96
13 98
14 20
14 21
14 23
14 24
14 25
14 28
14 29
14 31
14 36
14 39
14 43
14 49
14 51
14 52
14 56
14 58
14 62
14 64
14 67
14 70
14 71
14 72
14 74
14 75
14 76
14 77
14 79
14 82
14 83
14 85
14 86
14 88
14 89
14 94
14 95
14 98
14 99
15 16
15 17
15 18
15 23
15 24
15 25
15 27
15 28
15 29
15 31
15 37
15 38
15 39
15 42
15 44
15 45
15 51
15 52
15 53
15 55
15 56
15 58
15 60
15 62
15 63
15 64
15 67
15 69
15 70
15 72
15 73
15 75
15 77
15 78
15 83
15 84
15 86
15 87
15 90
15 91
15 93
15 94
15 96
15 98
15 99
16 17
16 18
16 21
16 23
16 24
16 28
16 30
16 31
16 32
16 33
16 34
16 38
16 40
16 42
16 44
16 45
16 46
16 49
16 51
16 54
16 56
16 58
16 61
16 63
16 67
16 70
16 71
16 73
16 74
16 75
16 80
16 81
16 82
16 87
16 88
16 90
16 93
16 94
16 97
17 18
17 19
17 20
17 21
17 22
17 25
17 27
17 28
17 29
17 32
17 33
17 34
17 35
17 37
17 40
17 41
17 42
17 47
17 51
17 53
17 54
17 55
17 57
17 61
17 62
17 64
17 66
17 71
17 73
17 74
17 75
17 78
17 80
17 84
17 85
17 86
17 87
17 89
17 92
17 93
17 95
17 96
17 97
17 99
18 20
18 22
18 23
18 24
18 25
18 29
18 34
18 35
18 38
18 41
18 43
18 44
18 48
18 49
18 50
18 51
18 52
18 54
18 55
18 56
18 57
18 59
18 61
18 62
18 63
18 64
18 67
18 70
18 73
18 74
18 76
18 79
18 82
18 87
18 89
18 91
18 94
18 97
18 99
19 20
19 23
19 24
19 26
19 27
19 29
19 30
19 31
19 32
19 33
19 35
19 38
19 39
19 41
19 42
19 43
19 44
19 47
19 51
19 52
19 53
19 56
19 57
19 59
19 62
19 63
19 64
19 65
19 67
19 68
19 69
19 73
19 74
19 75
19 76
19 78
19 79
19 86
19 87
19 88
19 89
19 91
19 92
19 93
19 97
19 98
20 22
20 23
20 25
20 26
20 29
20 30
20 32
20 34
20 35
20 36
20 39
20 41
20 42
20 43
20 48
20 52
20 54
20 57
20 58
20 60
20 61
20 66
20 67
20 69
20 70
20 71
20 72
20 73
20 74
20 75
20 77
20 78
20 82
20 84
20 85
20 88
20 90
20 93
20 94
20 96
20 97
20 98
21 22
21 23
21 24
21 25
21 26
21 31
21 32
21 33
21 35
21 36
21 39
21 40
21 42
21 43
21 44
21 45
21 47
21 49
21 52
21 56
21 58
21 60
21 61
21 62
21 63
21 66
21 67
21 71
21 72
21 73
21 74
21 78
21 79
21 83
21 84
21 85
21 86
21 87
21 88
21 89
21 90
21 92
21 94
21 97
21 98
22 24
22 27
22 30
22 34
22 38
22 39
22 44
22 45
22 46
22 48
22 50
22 51
22 53
22 55
22 56
22 57
22 60
22 62
22 63
22 64
22 65
22 70
22 71
22 72
22 74
22 75
22 76
22 77
22 79
22 83
22 90
22 91
22 92
22 93
22 94
22 96
22 99
23 29
23 31
23 33
23 34
23 36
23 38
23 41
23 42
23 43
23 49
23 51
23 52
23 54
23 55
23 56
23 59
23 60
23 63
23 64
23 67
23 68
23 70
23 71
23 73
23 75
23 76
23 82
23 85
23 91
23 93
23 95
23 96
23 97
23 98
23 99
24 26
24 27
24 29
24 31
24 32
24 39
24 40
24 43
24 44
24 45
24 46
24 49
24 50
24 51
24 52
24 53
24 57
24 59
24 61
24 62
24 67
24 68
24 70
24 71
24 72
24 75
24 76
24 78
24 81
24 82
24 84
24 85
24 86
24 91
24 92
24 94
24 95
24 96
24 98
25 29
25 31
25 34
25 35
25 36
25 40
25 41
25 42
25 43
25 46
25 47
25 48
25 50
25 51
25 53
25 55
25 57
25 59
25 60
25 67
25 68
25 69
25 70
25 71
25 73
25 74
25 75
25 77
25 78
25 79
25 83
25 85
25 86
25 87
25 88
25 90
25 91
25 94
25 96
25 97
25 99
26 27
26 28
26 34
26 36
26 39
26 43
26 46
26 47
26 48
26 52
26 54
26 55
26 57
26 60
26 62
26 64
26 66
26 67
26 70
26 71
26 72
26 74
26 75
26 77
26 80
26 82
26 83
26 85
26 86
26 87
26 88
26 91
26 92
26 94
26 95
26 97
26 98
27 30
27 32
27 36
27 46
27 49
27 51
27 52
27 54
27 56
27 57
27 58
27 66
27 67
27 68
27 72
27 76
27 77
27 78
27 79
27 82
27 83
27 84
27 85
27 86
27 89
27 90
27 92
27 94
27 95
27 98
27 99
28 29
28 31
28 32
28 33
28 34
28 35
28 36
28 37
28 38
28 41
28 42
28 43
28 44
28 45
28 46
28 49
28 51
28 52
28 58
28 60
28 62
28 63
28 65
28 66
28 68
28 69
28 71
28 72
28 74
28 78
28 79
28 80
28 84
28 90
28 92
28 93
28 95
28 96
28 99
29 31
29 32
29 33
29 35
29 37
29 38
29 42
29 45
29 46
29 49
29 50
29 51
29 52
29 53
29 54
29 57
29 58
29 60
29 62
29 63
29 65
29 67
29 70
29 73
29 76
29 77
29 78
29 81
29 82
29 84
29 85
29 86
29 90
29 91
29 94
29 95
30 33
30 37
30 38
30 40
30 41
30 43
30 44
30 45
30 46
30 50
30 51
30 52
30 54
30 55
30 57
30 60
30 63
30 66
30 67
30 70
30 71
30 72
30 73
30 74
30 79
30 81
30 82
30 85
30 88
30 90
30 93
30 96
30 97
31 32
31 36
31 48
31 49
31 51
31 54
31 55
31 57
31 58
31 59
31 63
31 65
31 68
31 69
31 70
31 71
31 75
31 77
31 78
31 79
31 81
31 82
31 85
31 89
31 90
31 93
31 96
31 97
31 98
31 99
32 34
32 36
32 38
32 40
32 41
32 42
32 45
32 46
32 47
32 49
32 50
32 52
32 54
32 61
32 62
32 64
32 66
32 68
32 71
32 72
32 73
32 75
32 76
32 79
32 81
32 82
32 85
32 88
32 89
32 95
32 96
32 97
33 34
33 38
33 39
33 42
33 43
33 45
33 48
33 49
33 53
33 55
33 58
33 60
33 62
33 67
33 70
33 71
33 76
33 77
33 80
33 82
33 86
33 87
33 88
33 90
33 91
33 95
33 97
33 98
34 35
34 36
34 37
34 38
34 40
34 42
34 46
34 50
34 51
34 52
34 54
34 57
34 58
34 59
34 63
34 67
34 68
34 70
34 71
34 74
34 77
34 79
34 80
34 81
34 82
34 83
34 85
34 87
34 91
34 92
34 95
34 96
35 36
35 44
35 47
35 48
35 49
35 50
35 54
35 55
35 56
35 57
35 58
35 61
35 66
35 67
35 69
35 70
35 71
35 73
35 74
35 75
35 76
35 77
35 78
35 83
35 85
35 86
35 91
35 92
35 94
35 97
36 39
36 43
36 45
36 49
36 52
36 53
36 55
36 56
36 59
36 61
36 64
36 66
36 67
36 70
36 71
36 72
36 74
36 76
36 77
36 78
36 80
36 82
36 83
36 84
36 86
36 88
36 91
36 92
36 94
36 96
36 97
37 39
37 40
37 43
37 44
37 48
37 49
37 50
37 51
37 52
37 53
37 55
37 58
37 59
37 62
37 64
37 65
37 66
37 73
37 75
37 76
37 77
37 79
37 80
37 81
37 82
37 84
37 89
37 90
37 91
37 92
37 95
37 98
37 99
38 39
38 42
38 43
38 45
38 48
38 49
38 52
38 55
38 59
38 60
38 65
38 66
38 68
38 71
38 78
38 80
38 86
38 90
38 91
38 98
39 40
39 43
39 44
39 45
39 46
39 49
39 50
39 53
39 54
39 56
39 60
39 61
39 63
39 67
39 68
39 72
39 73
39 74
39 75
39 76
39 77
39 78
39 82
39 83
39 84
39 87
39 91
39 92
39 94
39 96
39 98
39 99
40 41
40 46
40 49
40 51
40 52
40 54
40 55
40 56
40 57
40 58
40 61
40 62
40 63
40 70
40 71
40 72
40 73
40 74
40 79
40 81
40 83
40 85
40 86
40 87
40 88
40 89
40 92
40 94
40 96
40 97
41 42
41 44
41 45
41 47
41 48
41 52
41 53
41 55
41 59
41 60
41 61
41 64
41 66
41 69
41 72
41 74
41 76
41 77
41 78
41 84
41 85
41 86
41 87
41 90
41 92
41 97
41 98
41 99
42 46
42 49
42 51
42 52
42 54
42 55
42 57
42 59
42 61
42 63
42 64
42 65
42 66
42 75
42 77
42 79
42 82
42 84
42 85
42 88
42 91
42 92
42 93
42 96
42 97
42 98
43 45
43 46
43 47
43 49
43 50
43 51
43 52
43 54
43 55
43 58
43 59
43 60
43 64
43 65
43 66
43 67
43 69
43 70
43 73
43 76
43 79
43 80
43 83
43 85
43 86
43 88
43 89
43 90
43 93
43 95
43 97
43 98
43 99
44 51
44 52
44 58
44 61
44 62
44 63
44 64
44 69
44 70
44 71
44 72
44 74
44 79
44 80
44 82
44 83
44 84
44 88
44 89
44 92
44 94
44 95
44 96
44 97
45 47
45 49
45 52
45 53
45 54
45 55
45 56
45 60
45 63
45 64
45 65
45 66
45 67
45 68
45 70
45 72
45 77
45 79
45 80
45 84
45 86
45 89
45 91
45 92
45 94
45 96
45 98
45 99
46 52
46 53
46 57
46 58
46 59
46 62
46 63
46 64
46 65
46 66
46 69
46 70
46 72
46 76
46 77
46 78
46 79
46 80
46 82
46 83
46 86
46 88
46 89
46 90
46 92
46 97
46 98
46 99
47 48
47 49
47 52
47 53
47 58
47 60
47 62
47 64
47 65
47 66
47 69
47 70
47 71
47 72
47 77
47 81
47 84
47 85
47 86
47 88
47 91
47 94
47 96
47 97
47 98
47 99
48 50
48 51
48 52
48 53
48 60
48 61
48 62
48 64
48 65
48 67
48 68
48 72
48 73
48 74
48 75
48 77
48 79
48 81
48 82
48 84
48 86
48 87
48 90
48 93
48 96
48 98
48 99
49 53
49 56
49 57
49 59
49 60
49 63
49 64
49 69
49 70
49 72
49 74
49 75
49 77
49 80
49 81
49 82
49 84
49 86
49 87
49 89
49 93
49 97
49 99
50 51
50 52
50 53
50 55
50 58
50 60
50 61
50 63
50 65
50 66
50 67
50 70
50 71
50 72
50 73
50 74
50 75
50 76
50 78
50 81
50 82
50 84
50 85
50 87
50 88
50 89
50 90
50 94
50 95
50 98
50 99
51 53
51 54
51 56
51 57
51 59
51 62
51 63
51 66
51 70
51 76
51 79
51 80
51 88
51 91
51 92
51 93
51 99
52 54
52 55
52 57
52 58
52 59
52 61
52 66
52 68
52 69
52 70
52 72
52 74
52 78
52 79
52 82
52 83
52 86
52 88
52 89
52 92
52 93
52 94
52 95
52 98
53 55
53 56
53 58
53 59
53 60
53 62
53 63
53 64
53 65
53 66
53 67
53 68
53 69
53 71
53 72
53 73
53 74
53 76
53 77
53 78
53 81
53 82
53 83
53 89
53 92
53 94
53 95
53 96
53 98
53 99
54 59
54 60
54 64
54 65
54 67
54 70
54 71
54 73
54 76
54 77
54 79
54 86
54 87
54 88
54 89
54 90
54 96
54 97
54 99
55 56
55 58
55 59
55 62
55 64
55 66
55 67
55 71
55 72
55 74
55 75
55 77
55 79
55 80
55 81
55 82
55 84
55 87
55 88
55 90
55 93
55 94
55 97
55 98
55 99
56 59
56 64
56 65
56 66
56 68
56 69
56 70
56 71
56 72
56 73
56 74
56 76
56 77
56 78
56 80
56 81
56 82
56 83
56 90
56 93
56 94
56 95
56 97
56 98
56 99
57 58
57 62
57 63
57 65
57 66
57 67
57 68
57 69
57 70
57 71
57 77
57 79
57 84
57 88
57 90
57 94
57 96
57 97
57 98
58 59
58 60
58 63
58 64
58 66
58 67
58 68
58 71
58 75
58 76
58 77
58 80
58 81
58 82
58 83
58 84
58 85
58 88
58 90
58 91
58 92
58 93
58 95
58 96
58 98
58 99
59 60
59 61
59 63
59 64
59 74
59 75
59 80
59 81
59 83
59 85
59 86
59 91
59 92
59 93
59 96
60 62
60 63
60 65
60 66
60 70
60 71
60 73
60 74
60 77
60 82
60 83
60 85
60 88
60 90
60 91
60 92
60 93
60 94
60 95
60 98
60 99
61 63
61 64
61 65
61 66
61 68
61 71
61 72
61 73
61 76
61 77
61 79
61 80
61 81
61 82
61 84
61 87
61 88
61 89
61 90
61 91
61 92
61 93
61 94
61 96
62 63
62 64
62 67
62 69
62 70
62 71
62 72
62 73
62 75
62 80
62 82
62 83
62 85
62 88
62 91
62 93
62 95
62 96
62 98
63 64
63 65
63 66
63 67
63 68
63 69
63 72
63 75
63 77
63 78
63 80
63 81
63 82
63 84
63 85
63 92
63 94
63 95
63 96
63 98
63 99
64 66
64 69
64 70
64 71
64 72
64 73
64 75
64 77
64 80
64 83
64 85
64 86
64 87
64 91
64 92
64 96
64 99
65 72
65 74
65 76
65 77
65 80
65 81
65 82
65 83
65 84
65 85
65 87
65 90
65 92
65 93
65 94
65 95
65 99
66 74
66 76
66 78
66 81
66 82
66 83
66 89
66 92
66 93
66 96
66 97
66 98
66 99
67 68
67 73
67 77
67 78
67 80
67 82
67 84
67 89
67 94
67 95
67 96
67 97
68 70
68 71
68 72
68 76
68 78
68 79
68 80
68 81
68 82
68 83
68 84
68 87
68 88
68 89
68 90
68 92
68 94
68 95
68 99
69 71
69 72
69 73
69 74
69 75
69 76
69 77
69 81
69 82
69 83
69 86
69 90
69 92
69 93
69 94
69 95
69 96
69 97
69 99
70 71
70 72
70 75
70 77
70 78
70 80
70 82
70 84
70 87
70 88
70 90
70 95
70 96
70 98
70 99
71 74
71 77
71 80
71 81
71 83
71 86
71 87
71 93
71 94
71 95
71 96
71 98
72 74
72 79
72 80
72 81
72 84
72 85
72 87
72 88
72 90
72 92
72 93
72 96
72 98
72 99
73 74
73 76
73 77
73 78
73 87
73 88
73 91
73 93
73 94
73 95
73 97
73 98
73 99
74 75
74 76
74 82
74 84
74 85
74 88
74 92
74 93
74 96
74 97
74 98
75 77
75 80
75 82
75 84
75 86
75 91
75 92
75 96
75 99
76 77
76 78
76 83
76 84
76 85
76 89
76 90
76 94
76 97
76 99
77 78
77 79
77 81
77 82
77 84
77 88
77 90
77 95
77 98
77 99
78 79
78 81
78 82
78 84
78 85
78 90
78 91
78 95
78 96
78 98
79 81
79 82
79 83
79 84
79 85
79 86
79 89
79 92
79 94
79 98
80 83
80 84
80 85
80 86
80 87
80 88
80 89
80 91
80 93
80 99
81 82
81 89
81 92
81 93
81 98
81 99
82 84
82 85
82 86
82 88
82 91
82 92
82 93
82 94
82 96
83 84
83 86
83 88
83 89
83 90
83 91
83 93
83 94
83 95
83 98
84 85
84 88
84 94
84 96
84 99
85 87
85 88
85 91
85 93
85 96
85 98
85 99
86 87
86 88
86 89
86 90
86 94
86 95
86 98
87 88
87 90
87 91
87 96
87 97
88 89
88 90
88 91
88 92
88 93
88 94
88 96
88 98
89 90
89 92
89 93
89 95
89 96
89 97
89 99
90 91
90 94
90 98
91 95
91 98
92 93
92 96
93 94
93 96
93 97
94 96
94 97
94 99
95 97
95 99
96 97
96 98
96 99
97 99
98 99
86 91
63 85
28 57
40 73
55 90
35 54
23 43
42 59
6 74
22 93
17 52
25 65
19 98
15 92
2 48
37 81
26 77
39 69
24 78
11 13
88 89
20 27
50 61
30 46
68 95
16 99
58 71
12 96
21 76
1 47
8 53
31 56
3 97
49 67
83 94
5 44
9 38
33 84
7 82
10 70
32 41
64 87
36 66
0 14
51 75
62 72
18 29
4 60
34 45
79 80
